# Solution for model GasLib-40
# Objective value = 2.9854948932542751e+01
loadshed[innode_1] 0
loadshed[innode_2] 0
loadshed[innode_3] 0
loadshed[innode_4] 0
loadshed[innode_5] 0
loadshed[innode_6] 0
loadshed[innode_7] 0
loadshed[innode_8] 0
loadshed[source_1] -1.6248686206973861e-01
loadshed[source_2] 3.0998827522443761e-03
loadshed[source_3] 3.4823444895445266e-01
loadshed[sink_1] 0
loadshed[sink_2] 0
loadshed[sink_3] 0
loadshed[sink_4] 0
loadshed[sink_5] 0
loadshed[sink_6] 0
loadshed[sink_7] 0
loadshed[sink_8] 0
loadshed[sink_9] 0
loadshed[sink_10] 0
loadshed[sink_11] 0
loadshed[sink_12] 1
loadshed[sink_13] 0
loadshed[sink_14] 0
loadshed[sink_15] 0
loadshed[sink_16] 0
loadshed[sink_17] 0
loadshed[sink_18] 0
loadshed[sink_19] 0
loadshed[sink_20] 0
loadshed[sink_21] 0.82552553982427
loadshed[sink_22] 0
loadshed[sink_23] 0
loadshed[sink_24] 0
loadshed[sink_25] 0
loadshed[sink_26] 0
loadshed[sink_27] 0
loadshed[sink_28] 0
loadshed[sink_29] 0
flow[source_1,sink_3] 1.8377787093762220e+02
flow[innode_1,sink_16] 1.6354166666666970e+01
flow[innode_6,sink_13] 1.1441369655890732e+01
flow[sink_13,sink_14] -4.9127970107759360e+00
flow[sink_14,sink_10] -2.1266963677442618e+01
flow[sink_25,sink_26] 9.8125000000000341e+01
flow[sink_26,sink_9] 8.1770833333333655e+01
flow[sink_9,sink_18] 6.5416666666666671e+01
flow[sink_26,sink_4] 0
flow[sink_4,sink_20] -4.9565629286888765e+01
flow[sink_18,sink_6] 4.9062500000000313e+01
flow[sink_25,innode_8] -1.5106953760428584e+02
flow[sink_6,sink_7] 0
flow[sink_6,sink_22] 3.2708333333333641e+01
flow[sink_7,sink_24] 1.9207551067457256e+01
flow[sink_22,sink_1] 1.6354166666666970e+01
flow[sink_24,sink_21] 2.8533844007905849e+00
flow[sink_21,sink_12] 0
flow[sink_7,sink_5] -3.5561717734123917e+01
flow[sink_5,sink_17] -5.1915884400790588e+01
flow[sink_17,sink_4] -3.3211462620222093e+01
flow[sink_17,sink_8] -3.5058588447235152e+01
flow[sink_3,sink_23] 16.3541666666697
flow[sink_8,sink_20] -5.1412755113901824e+01
flow[sink_25,sink_20] 1.1733255106745727e+02
flow[sink_25,sink_15] -9.2183549785729639e+01
flow[sink_15,sink_29] -6.0767552792634568e+01
flow[sink_29,sink_28] 1.6354166666667879e+01
flow[sink_29,sink_2] 6.4124330326428222e+01
flow[sink_2,sink_15] 4.7770163659761558e+01
flow[sink_29,innode_7] -1.5760021645239692e+02
flow[innode_4,sink_19] 3.9271100887219212e+01
flow[sink_19,innode_3] 7.0329463677443158e+01
flow[innode_4,innode_5] 6.3766696123557765e+01
flow[sink_27,innode_5] -6.3766696123557765e+01
flow[sink_27,sink_19] 4.7412529456891093e+01
flow[sink_10,sink_11] 3.2708333333333641e+01
flow[sink_10,innode_2] 0
flow[sink_10,innode_3] -7.0329463677443158e+01
flow[innode_6,sink_25] -1.1441369655890732e+01
flow[sink_11,innode_1] 1.6354166666666970e+01
flow[sink_19,innode_2] 0
flow[source_3,innode_4] 1.0303779701077698e+02
flow[source_2,innode_7] 1.5760021645239692e+02
flow[sink_3,innode_8] 1.5106953760428584e+02
pressure[innode_1] 7.5370494576336924e+01
pressure[innode_2] 7.5522195883940469e+01
pressure[innode_3] 79.2665410063575
pressure[innode_4] 81.01325
pressure[innode_5] 8.0969387903977918e+01
pressure[innode_6] 7.4570580854073285e+01
pressure[innode_7] 81.01325
pressure[innode_8] 80.3989507831469
pressure[source_1] 81.01325
pressure[source_2] 81.01325
pressure[source_3] 81.01325
pressure[sink_1] 5.6987336896133073e+01
pressure[sink_2] 7.5173719952172434e+01
pressure[sink_3] 80.3989507831469
pressure[sink_4] 4.2962494408305048e+01
pressure[sink_5] 3.7825903689304816e+01
pressure[sink_6] 5.9088414506520451e+01
pressure[sink_7] 2.3036063376726137e+01
pressure[sink_8] 4.3016113440460295e+01
pressure[sink_9] 6.2765499309978736e+01
pressure[sink_10] 7.5522195883940469e+01
pressure[sink_11] 7.5370494576336924e+01
pressure[sink_12] 1.01325
pressure[sink_13] 7.4507506495190853e+01
pressure[sink_14] 74.5162983639194
pressure[sink_15] 7.5017760896197757e+01
pressure[sink_16] 7.4348844741519244e+01
pressure[sink_17] 41.693261818373
pressure[sink_18] 6.0398529334780079e+01
pressure[sink_19] 7.9422277639723376e+01
pressure[sink_20] 4.6598859440389091e+01
pressure[sink_21] 1.01325
pressure[sink_22] 5.8051106038488086e+01
pressure[sink_23] 8.0234232771487115e+01
pressure[sink_24] 1.0448485811284698e+00
pressure[sink_25] 7.4570580854073285e+01
pressure[sink_26] 6.7659694729690088e+01
pressure[sink_27] 8.0440242154337454e+01
pressure[sink_28] 7.6502779334419827e+01
pressure[sink_29] 76.798061608037
interdiction[source_1,sink_3] 0
interdiction[innode_1,sink_16] 0
interdiction[innode_6,sink_13] 0
interdiction[sink_13,sink_14] 0
interdiction[sink_14,sink_10] 0
interdiction[sink_25,sink_26] 0
interdiction[sink_26,sink_9] 0
interdiction[sink_9,sink_18] 0
interdiction[sink_26,sink_4] 1
interdiction[sink_4,sink_20] 0
interdiction[sink_18,sink_6] 0
interdiction[sink_25,innode_8] 0
interdiction[sink_6,sink_7] 1
interdiction[sink_6,sink_22] 0
interdiction[sink_7,sink_24] 0
interdiction[sink_22,sink_1] 0
interdiction[sink_24,sink_21] 0
interdiction[sink_21,sink_12] 0
interdiction[sink_7,sink_5] 0
interdiction[sink_5,sink_17] 0
interdiction[sink_17,sink_4] 0
interdiction[sink_17,sink_8] 0
interdiction[sink_3,sink_23] 0
interdiction[sink_8,sink_20] 0
interdiction[sink_25,sink_20] 0
interdiction[sink_25,sink_15] 0
interdiction[sink_15,sink_29] 0
interdiction[sink_29,sink_28] 0
interdiction[sink_29,sink_2] 0
interdiction[sink_2,sink_15] 0
interdiction[sink_29,innode_7] 0
interdiction[innode_4,sink_19] 0
interdiction[sink_19,innode_3] 0
interdiction[innode_4,innode_5] 0
interdiction[sink_27,innode_5] 0
interdiction[sink_27,sink_19] 0
interdiction[sink_10,sink_11] 0
interdiction[sink_10,innode_2] 0
interdiction[sink_10,innode_3] 0
interdiction[innode_6,sink_25] 0
interdiction[sink_11,innode_1] 0
interdiction[sink_19,innode_2] 1
interdiction[source_3,innode_4] 0
interdiction[source_2,innode_7] 0
interdiction[sink_3,innode_8] 0
WCcheckFlow[source_1,sink_3] 39
WCcheckFlow[innode_1,sink_16] 1
WCcheckFlow[innode_6,sink_13] 13
WCcheckFlow[sink_13,sink_14] 12
WCcheckFlow[sink_14,sink_10] 11
WCcheckFlow[sink_25,sink_26] 6
WCcheckFlow[sink_26,sink_9] 5
WCcheckFlow[sink_9,sink_18] 4
WCcheckFlow[sink_26,sink_4] 0
WCcheckFlow[sink_4,sink_20] -8
WCcheckFlow[sink_18,sink_6] 3
WCcheckFlow[sink_25,innode_8] -36
WCcheckFlow[sink_6,sink_7] 0
WCcheckFlow[sink_6,sink_22] 2
WCcheckFlow[sink_7,sink_24] 3
WCcheckFlow[sink_22,sink_1] 1
WCcheckFlow[sink_24,sink_21] 2
WCcheckFlow[sink_21,sink_12] 1
WCcheckFlow[sink_7,sink_5] -4
WCcheckFlow[sink_5,sink_17] -5
WCcheckFlow[sink_17,sink_4] -7
WCcheckFlow[sink_17,sink_8] 1
WCcheckFlow[sink_3,sink_23] 1
WCcheckFlow[sink_8,sink_20] 0
WCcheckFlow[sink_25,sink_20] 9
WCcheckFlow[sink_25,sink_15] 6
WCcheckFlow[sink_15,sink_29] 5
WCcheckFlow[sink_29,sink_28] 1
WCcheckFlow[sink_29,sink_2] 1
WCcheckFlow[sink_2,sink_15] 0
WCcheckFlow[sink_29,innode_7] 2
WCcheckFlow[innode_4,sink_19] -4
WCcheckFlow[sink_19,innode_3] -5
WCcheckFlow[innode_4,innode_5] 2
WCcheckFlow[sink_27,innode_5] -1
WCcheckFlow[sink_27,sink_19] 0
WCcheckFlow[sink_10,sink_11] 3
WCcheckFlow[sink_10,innode_2] 1
WCcheckFlow[sink_10,innode_3] 6
WCcheckFlow[innode_6,sink_25] -14
WCcheckFlow[sink_11,innode_1] 2
WCcheckFlow[sink_19,innode_2] 0
WCcheckFlow[source_3,innode_4] -1
WCcheckFlow[source_2,innode_7] -1
WCcheckFlow[sink_3,innode_8] 37
